
Gurobi 11.0.0 (linux64) logging started Tue Sep 17 03:06:16 2024

Set parameter LogFile to value "gurobi.log"
Set parameter InfUnbdInfo to value 1
Gurobi Optimizer version 11.0.0 build v11.0.0rc2 (linux64 - "Ubuntu 22.04.4 LTS")

CPU model: AMD EPYC 7V13 64-Core Processor, instruction set [SSE2|AVX|AVX2]
Thread count: 128 physical cores, 128 logical processors, using up to 32 threads

Optimize a model with 80 rows, 374 columns and 277 nonzeros
Model fingerprint: 0x4263dcc7
Model has 288 quadratic constraints
Model has 4 general constraints
Variable types: 90 continuous, 284 integer (0 binary)
Coefficient statistics:
  Matrix range     [1e+00, 2e+05]
  QMatrix range    [1e+00, 2e+05]
  QLMatrix range   [1e+00, 2e+05]
  Objective range  [1e+00, 1e+00]
  Bounds range     [1e+00, 3e+10]
  RHS range        [1e+00, 2e+06]
  QRHS range       [1e+00, 2e+06]
Warning: Model contains large bounds
         Consider reformulating model or setting NumericFocus parameter
         to avoid numerical issues.
Using branch priorities (all 0).
Presolve added 91 rows and 54 columns
Presolve time: 0.01s
Presolved: 1021 rows, 626 columns, 3782 nonzeros
Presolved model has 98 SOS constraint(s)
Presolved model has 147 bilinear constraint(s)
Warning: Model contains variables with very large bounds participating
         in product terms.
         Presolve was not able to compute smaller bounds for these variables.
         Consider bounding these variables or reformulating the model.


Solving non-convex MIQCP

Variable types: 195 continuous, 431 integer (162 binary)

Root relaxation: objective 2.015008e+04, 219 iterations, 0.00 seconds (0.00 work units)

    Nodes    |    Current Node    |     Objective Bounds      |     Work
 Expl Unexpl |  Obj  Depth IntInf | Incumbent    BestBd   Gap | It/Node Time

     0     0 20150.0750    0  118          - 20150.0750      -     -    0s
     0     0 20152.3768    0  145          - 20152.3768      -     -    0s
     0     0 20152.3768    0  161          - 20152.3768      -     -    0s
     0     0 20152.3768    0  169          - 20152.3768      -     -    0s
     0     0 20179.7070    0  186          - 20179.7070      -     -    0s
     0     0 20179.7070    0  187          - 20179.7070      -     -    0s
     0     0 20179.7070    0  196          - 20179.7070      -     -    0s
     0     0 20179.7070    0  197          - 20179.7070      -     -    0s
     0     0 20196.4473    0  169          - 20196.4473      -     -    0s
     0     0 20196.4473    0  173          - 20196.4473      -     -    0s
     0     0 20197.9806    0  173          - 20197.9806      -     -    0s
H    0     0                    24218.506993 20197.9806  16.6%     -    0s
     0     0 20206.6969    0  136 24218.5070 20206.6969  16.6%     -    0s
     0     0 20206.9500    0  135 24218.5070 20206.9500  16.6%     -    0s
H    0     0                    24193.506993 20211.5047  16.5%     -    0s
     0     0 20211.5047    0  137 24193.5070 20211.5047  16.5%     -    0s
     0     0 20218.9490    0  157 24193.5070 20218.9490  16.4%     -    0s
     0     0 20220.4255    0  166 24193.5070 20220.4255  16.4%     -    0s
     0     0 20225.7260    0  160 24193.5070 20225.7260  16.4%     -    0s
     0     0 20229.5528    0  159 24193.5070 20229.5528  16.4%     -    0s
H    0     0                    23812.506993 20229.5528  15.0%     -    0s
     0     0 20229.5528    0  160 23812.5070 20229.5528  15.0%     -    0s
     0     0 20230.2341    0  160 23812.5070 20230.2341  15.0%     -    0s
     0     0 20235.3222    0  141 23812.5070 20235.3222  15.0%     -    0s
     0     0 20236.4419    0  149 23812.5070 20236.4419  15.0%     -    0s
H    0     0                    23810.506993 20236.4419  15.0%     -    0s
     0     0 20238.9297    0  149 23810.5070 20238.9297  15.0%     -    0s
     0     0 20242.5246    0  149 23810.5070 20242.5246  15.0%     -    0s
     0     0 20248.8245    0  146 23810.5070 20248.8245  15.0%     -    0s
     0     0 20252.7876    0  147 23810.5070 20252.7876  14.9%     -    0s
H    0     0                    23610.506993 20252.8922  14.2%     -    0s
     0     0 20253.9168    0  146 23610.5070 20253.9168  14.2%     -    0s
     0     0 20255.2157    0  143 23610.5070 20255.2157  14.2%     -    0s
     0     0 20257.3489    0  137 23610.5070 20257.3489  14.2%     -    0s
     0     0 20261.0992    0  137 23610.5070 20261.0992  14.2%     -    0s
     0     0 20267.0138    0  143 23610.5070 20267.0138  14.2%     -    0s
     0     0 20267.6507    0  143 23610.5070 20267.6507  14.2%     -    0s
     0     0 20270.4304    0  143 23610.5070 20270.4304  14.1%     -    0s
     0     0 20273.5910    0  143 23610.5070 20273.5910  14.1%     -    0s
     0     0 20277.8341    0  143 23610.5070 20277.8341  14.1%     -    0s
     0     0 20283.6805    0  138 23610.5070 20283.6805  14.1%     -    0s
H    0     0                    23441.506993 20283.6805  13.5%     -    0s
     0     0 20283.6805    0  115 23441.5070 20283.6805  13.5%     -    0s
     0     0 20283.6805    0  105 23441.5070 20283.6805  13.5%     -    0s
     0     0 20283.6805    0  163 23441.5070 20283.6805  13.5%     -    0s
     0     0 20283.6805    0  171 23441.5070 20283.6805  13.5%     -    0s
     0     0 20283.6805    0  176 23441.5070 20283.6805  13.5%     -    0s
     0     0 20283.6805    0  164 23441.5070 20283.6805  13.5%     -    0s
     0     0 20283.6805    0  171 23441.5070 20283.6805  13.5%     -    0s
     0     0 20283.6805    0  165 23441.5070 20283.6805  13.5%     -    0s
     0     0 20283.6805    0  172 23441.5070 20283.6805  13.5%     -    0s
     0     0 20283.6805    0  179 23441.5070 20283.6805  13.5%     -    0s
     0     0 20283.6805    0  155 23441.5070 20283.6805  13.5%     -    0s
     0     0 20283.6805    0  137 23441.5070 20283.6805  13.5%     -    0s
     0     0 20296.4959    0  137 23441.5070 20296.4959  13.4%     -    1s
     0     0 20298.0017    0  131 23441.5070 20298.0017  13.4%     -    1s
     0     0 20315.6296    0  138 23441.5070 20315.6296  13.3%     -    1s
     0     0 20322.4492    0  141 23441.5070 20322.4492  13.3%     -    1s
H    0     0                    23223.040529 20333.6812  12.4%     -    1s
     0     0 20336.5502    0  139 23223.0405 20336.5502  12.4%     -    1s
     0     0 20346.5954    0  139 23223.0405 20346.5954  12.4%     -    1s
     0     0 20362.4854    0  144 23223.0405 20362.4854  12.3%     -    1s
     0     0 20367.4269    0  147 23223.0405 20367.4269  12.3%     -    1s
H    0     0                    22473.012556 20373.0359  9.34%     -    1s
     0     0 20380.6465    0  145 22473.0126 20380.6465  9.31%     -    1s
     0     0 20384.4281    0  145 22473.0126 20384.4281  9.29%     -    1s
     0     0 20398.5513    0  147 22473.0126 20398.5513  9.23%     -    1s
     0     0 20418.6180    0   92 22473.0126 20418.6180  9.14%     -    1s
H    0     0                    22470.012556 20418.6180  9.13%     -    1s
H    0     0                    22255.491576 20418.6180  8.25%     -    1s
     0     2 20418.6180    0   92 22255.4916 20418.6180  8.25%     -    1s
H   30    34                    22242.499285 20418.6180  8.20%  31.7    2s

Cutting planes:
  Gomory: 14
  Implied bound: 16
  MIR: 79
  StrongCG: 5
  Flow cover: 4
  Zero half: 2
  RLT: 40
  Relax-and-lift: 9

Explored 3430 nodes (26502 simplex iterations) in 3.75 seconds (0.42 work units)
Thread count was 32 (of 128 available processors)

Solution count 10: 22242.5 22255.5 22470 ... 24193.5

Optimal solution found (tolerance 1.00e-10)
Warning: max constraint violation (7.6333e-04) exceeds tolerance
Warning: max general constraint violation (7.6333e-04) exceeds tolerance
Best objective 2.224249928454e+04, best bound 2.224249928454e+04, gap 0.0000%
